\ Model Dual
\ LP format - for model browsing. Use MPS format to capture full model detail.
Minimize
  125 lamb_0 + 130 lamb_1 + 118 lamb_2 + 137 lamb_3 + lamb_4 + lamb_5
   + lamb_6 + lamb_7 + lamb_8 + lamb_9 + lamb_10 + lamb_11 + lamb_12
   + lamb_13 + lamb_14 + lamb_15 + lamb_16 + lamb_17 + lamb_18 + lamb_19
   + lamb_20 + lamb_21 + lamb_22 + lamb_23 + lamb_24 + lamb_25 + lamb_26
   + lamb_27 + lamb_28 + lamb_29 + lamb_30 + lamb_31 + lamb_32 + lamb_33
   + lamb_34 + lamb_35 + lamb_36 + lamb_37 + lamb_38 + lamb_39 + lamb_40
   + lamb_41 + lamb_42 + lamb_43 + lamb_44 + lamb_45 + lamb_46 + lamb_47
   + lamb_48 + lamb_49 + lamb_50 + lamb_51 + lamb_52 + lamb_53 + lamb_54
   + lamb_55 + lamb_56 + lamb_57 + lamb_58 + lamb_59 + lamb_60 + lamb_61
   + lamb_62 + lamb_63 + lamb_64 + lamb_65 + lamb_66 + lamb_67 + lamb_68
   + lamb_69 + lamb_70 + lamb_71 + lamb_72 + lamb_73 + lamb_74 + lamb_75
   + lamb_76 + lamb_77 + lamb_78 + lamb_79 + lamb_80 + lamb_81 + lamb_82
   + lamb_83 + lamb_84 + lamb_85 + lamb_86 + lamb_87 + lamb_88 + lamb_89
   + lamb_90 + lamb_91 + lamb_92 + lamb_93 + lamb_94 + lamb_95 + lamb_96
   + lamb_97 + lamb_98 + lamb_99 + lamb_100 + lamb_101 + lamb_102
   + lamb_103
Subject To
 R0: 5 lamb_0 + lamb_1 + 3 lamb_2 + lamb_3 + lamb_4 >= 3
 R1: 4 lamb_0 + 2 lamb_1 + 3 lamb_2 + 2 lamb_3 + lamb_5 >= 16
 R2: 3 lamb_0 + lamb_1 + 2 lamb_2 + lamb_3 + lamb_6 >= 8
 R3: lamb_1 + 2 lamb_2 + lamb_7 >= 9
 R4: 3 lamb_0 + 2 lamb_1 + 3 lamb_2 + 3 lamb_3 + lamb_8 >= 16
 R5: 4 lamb_0 + lamb_1 + 2 lamb_2 + 3 lamb_3 + lamb_9 >= 13
 R6: 2 lamb_0 + lamb_2 + lamb_3 + lamb_10 >= 5
 R7: 3 lamb_0 + lamb_1 + 3 lamb_2 + 3 lamb_3 + lamb_11 >= 8
 R8: 4 lamb_0 + 3 lamb_1 + 2 lamb_3 + lamb_12 >= 9
 R9: 3 lamb_0 + lamb_1 + lamb_2 + lamb_3 + lamb_13 >= 5
 R10: 2 lamb_0 + lamb_1 + lamb_2 + 2 lamb_3 + lamb_14 >= 3
 R11: lamb_0 + 3 lamb_1 + 2 lamb_2 + lamb_3 + lamb_15 >= 6
 R12: lamb_1 + 2 lamb_2 + lamb_16 >= 3
 R13: 2 lamb_0 + 2 lamb_1 + 2 lamb_2 + lamb_3 + lamb_17 >= 6
 R14: 6 lamb_0 + lamb_1 + 2 lamb_3 + lamb_18 >= 11
 R15: 6 lamb_0 + 2 lamb_1 + 2 lamb_2 + 2 lamb_3 + lamb_19 >= 4
 R16: 2 lamb_0 + 3 lamb_1 + 2 lamb_2 + 2 lamb_3 + lamb_20 >= 12
 R17: 2 lamb_1 + 2 lamb_2 + 2 lamb_3 + lamb_21 >= 13
 R18: 4 lamb_0 + lamb_1 + 3 lamb_2 + 2 lamb_3 + lamb_22 >= 3
 R19: lamb_0 + lamb_1 + lamb_2 + 2 lamb_3 + lamb_23 >= 11
 R20: 5 lamb_0 + lamb_1 + 2 lamb_2 + 2 lamb_3 + lamb_24 >= 1
 R21: lamb_0 + lamb_1 + lamb_3 + lamb_25 >= 13
 R22: 3 lamb_0 + 2 lamb_1 + 3 lamb_2 + lamb_3 + lamb_26 >= 4
 R23: 2 lamb_0 + lamb_1 + 2 lamb_3 + lamb_27 >= 7
 R24: 2 lamb_0 + lamb_1 + lamb_2 + lamb_3 + lamb_28 >= 6
 R25: 3 lamb_0 + 2 lamb_1 + 2 lamb_2 + lamb_3 + lamb_29 >= 13
 R26: lamb_0 + 2 lamb_2 + lamb_3 + lamb_30 >= 6
 R27: lamb_1 + lamb_3 + lamb_31 >= 4
 R28: 2 lamb_0 + 3 lamb_1 + lamb_2 + 2 lamb_3 + lamb_32 >= 16
 R29: lamb_0 + 2 lamb_1 + lamb_2 + 3 lamb_3 + lamb_33 >= 13
 R30: 2 lamb_0 + lamb_1 + lamb_2 + lamb_34 >= 4
 R31: 5 lamb_0 + 2 lamb_1 + 2 lamb_2 + 2 lamb_3 + lamb_35 >= 13
 R32: 3 lamb_1 + 2 lamb_2 + lamb_3 + lamb_36 >= 7
 R33: 5 lamb_0 + lamb_1 + 3 lamb_3 + lamb_37 >= 14
 R34: 4 lamb_0 + 2 lamb_1 + 2 lamb_2 + lamb_38 >= 14
 R35: lamb_1 + 3 lamb_3 + lamb_39 >= 12
 R36: 4 lamb_0 + 2 lamb_1 + lamb_2 + lamb_40 >= 15
 R37: 2 lamb_1 + 2 lamb_2 + lamb_41 >= 7
 R38: 3 lamb_0 + lamb_3 + lamb_42 >= 2
 R39: lamb_0 + 3 lamb_1 + 3 lamb_2 + 2 lamb_3 + lamb_43 >= 4
 R40: 4 lamb_0 + 2 lamb_1 + 2 lamb_2 + lamb_3 + lamb_44 >= 5
 R41: 5 lamb_0 + lamb_1 + lamb_45 >= 3
 R42: 2 lamb_0 + 2 lamb_1 + 2 lamb_2 + 3 lamb_3 + lamb_46 >= 11
 R43: 6 lamb_0 + lamb_1 + lamb_3 + lamb_47 >= 4
 R44: 3 lamb_0 + 3 lamb_1 + 2 lamb_2 + 2 lamb_3 + lamb_48 >= 4
 R45: 5 lamb_0 + 2 lamb_1 + 3 lamb_3 + lamb_49 >= 9
 R46: 6 lamb_0 + 3 lamb_1 + 2 lamb_2 + lamb_3 + lamb_50 >= 6
 R47: 2 lamb_0 + 2 lamb_1 + 3 lamb_2 + 3 lamb_3 + lamb_51 >= 7
 R48: lamb_0 + 2 lamb_2 + lamb_3 + lamb_52 >= 11
 R49: 3 lamb_0 + lamb_1 + 2 lamb_2 + lamb_3 + lamb_53 >= 13
 R50: 6 lamb_0 + lamb_2 + 3 lamb_3 + lamb_54 >= 9
 R51: 5 lamb_0 + 2 lamb_1 + 3 lamb_3 + lamb_55 >= 11
 R52: 5 lamb_0 + lamb_1 + 3 lamb_2 + lamb_3 + lamb_56 >= 5
 R53: 3 lamb_0 + 2 lamb_1 + 3 lamb_3 + lamb_57 >= 12
 R54: 2 lamb_0 + lamb_1 + 3 lamb_2 + 2 lamb_3 + lamb_58 >= 5
 R55: 5 lamb_0 + 2 lamb_1 + lamb_2 + lamb_3 + lamb_59 >= 9
 R56: 5 lamb_0 + 2 lamb_1 + lamb_2 + lamb_60 >= 6
 R57: lamb_0 + lamb_1 + lamb_2 + lamb_3 + lamb_61 >= 1
 R58: 6 lamb_0 + 2 lamb_1 + 2 lamb_2 + 2 lamb_3 + lamb_62 >= 12
 R59: 3 lamb_0 + 3 lamb_1 + 3 lamb_2 + lamb_3 + lamb_63 >= 7
 R60: 6 lamb_0 + 2 lamb_3 + lamb_64 >= 7
 R61: lamb_0 + 2 lamb_1 + 2 lamb_2 + 3 lamb_3 + lamb_65 >= 3
 R62: 4 lamb_0 + lamb_2 + 3 lamb_3 + lamb_66 >= 8
 R63: 5 lamb_0 + 2 lamb_3 + lamb_67 >= 4
 R64: 5 lamb_0 + 3 lamb_1 + lamb_2 + 2 lamb_3 + lamb_68 >= 1
 R65: 4 lamb_0 + 2 lamb_1 + lamb_2 + 2 lamb_3 + lamb_69 >= 5
 R66: lamb_0 + lamb_1 + 2 lamb_3 + lamb_70 >= 8
 R67: 2 lamb_1 + lamb_2 + lamb_71 >= 9
 R68: lamb_0 + 2 lamb_1 + 2 lamb_2 + lamb_72 >= 3
 R69: 3 lamb_0 + 3 lamb_2 + 2 lamb_3 + lamb_73 >= 12
 R70: 4 lamb_0 + 2 lamb_1 + lamb_2 + 3 lamb_3 + lamb_74 >= 3
 R71: 4 lamb_0 + 2 lamb_1 + 2 lamb_2 + 2 lamb_3 + lamb_75 >= 9
 R72: 5 lamb_0 + lamb_1 + 2 lamb_2 + lamb_3 + lamb_76 >= 7
 R73: 3 lamb_0 + 2 lamb_1 + lamb_2 + lamb_77 >= 16
 R74: 2 lamb_0 + 2 lamb_1 + 2 lamb_2 + lamb_3 + lamb_78 >= 15
 R75: lamb_0 + 2 lamb_2 + 2 lamb_3 + lamb_79 >= 5
 R76: 4 lamb_0 + 2 lamb_1 + lamb_2 + 2 lamb_3 + lamb_80 >= 5
 R77: 2 lamb_1 + 2 lamb_2 + lamb_81 >= 15
 R78: 2 lamb_0 + lamb_1 + 3 lamb_2 + lamb_3 + lamb_82 >= 10
 R79: 2 lamb_0 + 3 lamb_1 + lamb_2 + 3 lamb_3 + lamb_83 >= 4
 R80: 5 lamb_0 + 2 lamb_1 + 2 lamb_2 + 3 lamb_3 + lamb_84 >= 7
 R81: 2 lamb_0 + lamb_1 + 3 lamb_2 + lamb_3 + lamb_85 >= 10
 R82: 3 lamb_0 + 2 lamb_1 + 2 lamb_3 + lamb_86 >= 1
 R83: lamb_0 + lamb_1 + lamb_2 + lamb_87 >= 10
 R84: 3 lamb_0 + lamb_1 + 2 lamb_3 + lamb_88 >= 4
 R85: 5 lamb_0 + 3 lamb_1 + lamb_2 + 3 lamb_3 + lamb_89 >= 14
 R86: 4 lamb_0 + 3 lamb_2 + lamb_3 + lamb_90 >= 8
 R87: 4 lamb_0 + 3 lamb_1 + lamb_2 + lamb_91 >= 10
 R88: 6 lamb_0 + 2 lamb_1 + 2 lamb_3 + lamb_92 >= 9
 R89: lamb_1 + 3 lamb_3 + lamb_93 >= 9
 R90: 2 lamb_0 + 2 lamb_1 + 2 lamb_2 + lamb_3 + lamb_94 >= 6
 R91: lamb_0 + lamb_3 + lamb_95 >= 10
 R92: 2 lamb_0 + lamb_96 >= 3
 R93: 3 lamb_1 + lamb_2 + lamb_3 + lamb_97 >= 10
 R94: 2 lamb_0 + lamb_1 + 2 lamb_2 + lamb_3 + lamb_98 >= 11
 R95: 5 lamb_0 + 2 lamb_1 + lamb_3 + lamb_99 >= 2
 R96: 3 lamb_0 + lamb_1 + 3 lamb_2 + 2 lamb_3 + lamb_100 >= 14
 R97: 4 lamb_0 + lamb_1 + 2 lamb_2 + 3 lamb_3 + lamb_101 >= 12
 R98: 5 lamb_0 + 2 lamb_1 + 3 lamb_2 + lamb_3 + lamb_102 >= 2
 R99: lamb_0 + 2 lamb_1 + lamb_2 + lamb_3 + lamb_103 >= 4
Bounds
End
